\* Problem: Unknown *\

Maximize
 obj: + xp_0_0 + xp_0_1 + xp_0_2 + xp_0_3 + xp_0_4 + xp_0_5 + xp_0_6
 + xp_0_7 + xp_0_8 + xp_0_9 + xp_1_0 + xp_1_1 + xp_1_2 + xp_2_0 + xp_2_1
 + xp_2_2 + xp_2_3 + xp_2_4 + xp_3_0 + xp_3_1 + xp_3_2 + xp_3_3 + xp_4_0
 + xp_5_0 + xp_5_1 + xp_5_2 + xp_6_0 + xp_6_1 + xp_6_2 + xp_6_3 + xp_6_4
 + xp_6_5 + xp_7_0 + xp_7_1 + xp_8_0 + xp_8_1 + xp_9_0 + xp_10_0
 + xp_10_1 + xp_11_0 + xp_11_1 + xp_11_2 + xp_11_3 + xp_11_4 + xp_12_0
 + xp_13_0 + xp_13_1 + xp_14_0 + xp_14_1 + xp_15_0 + xp_16_0 + xp_16_1
 + xp_17_0 + xp_17_1 + xp_17_2 + xp_17_3 + xp_17_4 + xp_17_5 + xp_17_6
 + xp_17_7 + xp_17_8 + xp_18_0 + xp_18_1 + xp_18_2 + xp_18_3 + xp_18_4
 + xp_19_0 + xp_19_1 + xp_19_2 + xp_19_3 + xp_19_4 + xp_19_5 + xp_20_0
 + xp_20_1 + xp_20_2 + xp_20_3 + xp_21_0 + xp_21_1 + xp_21_2 + xp_21_3
 + xp_21_4 + xp_21_5 + xp_22_0 + xp_22_1 + xp_22_2 + xp_22_3 + xp_22_4
 + xp_22_5 + xp_22_6 + xp_22_7 + xp_23_0 + xp_23_1 + xp_23_2 + xp_23_3
 + xp_23_4 + xp_23_5 + xp_23_6

Subject To
 r_1: 0 xp_0_0 <= 25.6936067551267
 r_2: + xp_22_3 + xp_18_3 + xp_18_1 + xp_6_5 + xp_5_1 + xp_2_3
 <= 25.3980019336126
 r_3: + xp_23_3 + xp_21_1 + xp_18_4 + xp_17_3 + xp_6_2
 <= 26.0136785539814
 r_4: + xp_17_2 + xp_15_0 <= 26.2815479528884
 r_5: + xp_18_0 <= 25.0949747535465
 r_6: + xp_18_2 + xp_0_8 <= 25.6936067551267
 r_7: + xp_20_3 <= 25.6936067551267
 r_8: + xp_23_4 + xp_22_2 + xp_17_7 + xp_11_3 + xp_5_2 + xp_3_3 + xp_3_2
 + xp_2_1 <= 25.3980019336126
 r_9: + xp_23_2 + xp_17_6 + xp_11_1 + xp_6_3 + xp_3_1
 <= 26.0136785539814
 r_10: + xp_17_4 + xp_11_4 + xp_3_0 <= 26.2815479528884
 r_11: + xp_18_2 + xp_11_2 + xp_0_8 + xp_0_6 <= 25.0949747535465
 r_12: + xp_11_0 <= 25.6936067551267
 r_13: 0 xp_0_0 <= 26.9620253164557
 r_14: + xp_21_2 + xp_14_0 + xp_0_9 + xp_0_1 <= 25.3980019336126
 r_15: + xp_21_0 + xp_19_3 <= 26.0136785539814
 r_16: + xp_22_1 + xp_21_3 + xp_19_4 + xp_0_5 + xp_0_3 + xp_0_2
 <= 26.0949464012251
 r_17: + xp_0_0 <= 25.0949747535465
 r_18: + xp_21_1 + xp_4_0 + xp_0_8 <= 25.6936067551267
 r_19: + xp_19_0 + xp_0_6 <= 25.6936067551267
 r_20: + xp_21_5 + xp_21_4 + xp_19_5 + xp_19_2 + xp_19_1 + xp_14_1
 + xp_0_7 + xp_0_4 <= 26.9620253164557
 r_21: + xp_20_1 <= 25.3980019336126
 r_22: + xp_21_4 + xp_21_2 + xp_7_1 <= 26.0136785539814
 r_23: + xp_23_6 + xp_22_5 + xp_22_3 + xp_22_2 + xp_17_7 + xp_3_2
 <= 26.0949464012251
 r_24: + xp_23_5 + xp_23_4 + xp_18_3 + xp_17_8 + xp_6_5 + xp_6_1
 + xp_3_3 + xp_0_9 + xp_0_4 <= 25.5089820359281
 r_25: 0 xp_0_0 <= 26.9620253164557
 r_26: + xp_18_1 + xp_0_7 + xp_0_1 <= 25.0949747535465
 r_27: + xp_11_3 <= 25.3980019336126
 r_28: + xp_19_2 + xp_10_1 <= 25.3980019336126
 r_29: + xp_20_2 <= 26.0136785539814
 r_30: + xp_2_0 <= 26.0136785539814
 r_31: + xp_23_3 + xp_23_2 + xp_18_4 + xp_17_6 + xp_17_3 + xp_6_3
 + xp_6_2 + xp_3_1 + xp_2_4 <= 25.5089820359281
 r_32: + xp_2_2 <= 26.9620253164557
 r_33: + xp_11_1 + xp_2_3 <= 26.0136785539814
 r_34: + xp_19_5 + xp_19_3 + xp_2_1 <= 26.0136785539814
 r_35: 0 xp_0_0 <= 26.0949464012251
 r_36: + xp_9_0 <= 26.0949464012251
 r_37: + xp_21_3 + xp_13_1 + xp_8_1 + xp_6_4 + xp_0_3
 <= 25.5089820359281
 r_38: + xp_23_6 + xp_1_1 <= 27.3778920308483
 r_39: + xp_19_4 + xp_17_7 + xp_17_1 + xp_3_2 + xp_0_5
 <= 26.2815479528884
 r_40: + xp_0_2 <= 25.0949747535465
 r_41: + xp_12_0 + xp_2_4 <= 25.5089820359281
 r_42: + xp_21_3 <= 25.5089820359281
 r_43: + xp_22_6 + xp_16_0 <= 25.5089820359281
 r_44: + xp_23_5 + xp_23_4 + xp_23_3 + xp_23_2 + xp_23_1 + xp_22_4
 + xp_16_1 + xp_1_2 <= 27.3778920308483
 r_45: + xp_17_8 + xp_17_6 + xp_17_5 + xp_17_3 + xp_3_3 + xp_3_1
 <= 26.2815479528884
 r_46: + xp_18_4 + xp_18_3 + xp_0_9 + xp_0_4 + xp_0_3
 <= 25.0949747535465
 r_47: + xp_22_7 + xp_22_4 + xp_16_1 + xp_13_1 <= 27.3778920308483
 r_48: + xp_13_0 <= 27.3778920308483
 r_49: 0 xp_0_0 <= 26.2815479528884
 r_50: 0 xp_0_0 <= 25.0949747535465
 r_51: + xp_8_1 + xp_1_1 <= 26.2815479528884
 r_52: + xp_8_0 + xp_1_2 <= 26.2815479528884
 r_53: + xp_1_0 <= 26.2815479528884
 r_54: + xp_0_5 <= 25.0949747535465
 r_55: + xp_11_4 <= 26.2815479528884
 r_56: + xp_19_4 <= 26.2815479528884
 r_57: + xp_22_1 <= 25.0949747535465
 r_58: + xp_23_6 + xp_23_5 + xp_22_5 + xp_17_8 + xp_6_1 + xp_5_0
 <= 25.0949747535465
 r_59: + xp_22_0 + xp_17_1 + xp_6_4 <= 25.0949747535465
 r_60: + xp_23_1 + xp_22_6 + xp_22_4 + xp_17_5 + xp_6_0
 <= 25.0949747535465
 r_61: + xp_23_0 + xp_22_7 <= 25.0949747535465
 r_62: + xp_17_0 <= 25.0949747535465
 r_63: + xp_23_3 + xp_22_3 + xp_17_3 + xp_17_2 + xp_11_2 + xp_6_5
 + xp_6_2 + xp_5_1 <= 25.0949747535465
 r_64: + xp_23_4 + xp_23_2 + xp_22_2 + xp_17_7 + xp_17_6 + xp_17_4
 + xp_6_3 + xp_5_2 <= 25.0949747535465
 r_65: + xp_21_4 + xp_20_1 + xp_19_2 + xp_14_1 + xp_10_1 + xp_7_1
 + xp_2_2 + xp_0_7 + xp_0_4 <= 26.9620253164557
 r_66: + xp_21_5 + xp_20_2 + xp_19_5 + xp_7_0 <= 26.9620253164557
 r_67: + xp_20_3 + xp_19_1 + xp_10_0 <= 26.9620253164557
 r_68: + xp_20_0 <= 26.9620253164557

Bounds
 0 <= xp_0_0 <= 28.8891251634646
 0 <= xp_0_1 <= 6.66539246164708
 0 <= xp_0_2 <= 13.2118031984895
 0 <= xp_0_3 <= 1.88740045692707
 0 <= xp_0_4 <= 3.04363707604425
 0 <= xp_0_5 <= 4.93103753297131
 0 <= xp_0_6 <= 1.15623661911718
 0 <= xp_0_7 <= 4.35291922341272
 0 <= xp_0_8 <= 0.578118309558589
 0 <= xp_0_9 <= 0.578118309558589
 0 <= xp_1_0 <= 19.4974506882028
 0 <= xp_1_1 <= 16.5104884730792
 0 <= xp_1_2 <= 0.549780879098286
 0 <= xp_2_0 <= 24.1961265761209
 0 <= xp_2_1 <= 1.03154739533075
 0 <= xp_2_2 <= 1.88740045692707
 0 <= xp_2_3 <= 6.86944309984638
 0 <= xp_2_4 <= 2.0630947906615
 0 <= xp_3_0 <= 25.9191571020551
 0 <= xp_3_1 <= 3.96182719993195
 0 <= xp_3_2 <= 2.5788760379287
 0 <= xp_3_3 <= 1.03721337150244
 0 <= xp_4_0 <= 27.2057451463295
 0 <= xp_5_0 <= 19.950879773975
 0 <= xp_5_1 <= 3.62743268617727
 0 <= xp_5_2 <= 3.62743268617727
 0 <= xp_6_0 <= 14.6911023790179
 0 <= xp_6_1 <= 1.63234470877977
 0 <= xp_6_2 <= 3.26468941755954
 0 <= xp_6_3 <= 1.63234470877977
 0 <= xp_6_4 <= 1.63234470877977
 0 <= xp_6_5 <= 1.63234470877977
 0 <= xp_7_0 <= 21.9006248427953
 0 <= xp_7_1 <= 1.56433034591395
 0 <= xp_8_0 <= 19.6788223225117
 0 <= xp_8_1 <= 1.40563016589369
 0 <= xp_9_0 <= 19.5541293239244
 0 <= xp_10_0 <= 18.2505207023294
 0 <= xp_10_1 <= 1.30360862159496
 0 <= xp_11_0 <= 28.311006853906
 0 <= xp_11_1 <= 13.4328253415975
 0 <= xp_11_2 <= 7.06781643747124
 0 <= xp_11_3 <= 12.7300178082524
 0 <= xp_11_4 <= 0.351403766672509
 0 <= xp_12_0 <= 18.3638779737724
 0 <= xp_13_0 <= 14.283016201823
 0 <= xp_13_1 <= 3.57075405045575
 0 <= xp_14_0 <= 12.4692998587344
 0 <= xp_14_1 <= 4.53429085772159
 0 <= xp_15_0 <= 16.8335548092914
 0 <= xp_16_0 <= 13.9996230232154
 0 <= xp_16_1 <= 2.15378815741775
 0 <= xp_17_0 <= 28.3280010076202
 0 <= xp_17_1 <= 2.52786337837887
 0 <= xp_17_2 <= 4.41526383530594
 0 <= xp_17_3 <= 1.26393168918944
 0 <= xp_17_4 <= 1.26393168918944
 0 <= xp_17_5 <= 3.79179506756831
 0 <= xp_17_6 <= 2.52786337837887
 0 <= xp_17_7 <= 1.88740045692707
 0 <= xp_17_8 <= 1.26393168918944
 0 <= xp_18_0 <= 22.6034323761403
 0 <= xp_18_1 <= 3.01530342038486
 0 <= xp_18_2 <= 13.580208668478
 0 <= xp_18_3 <= 3.77480091385414
 0 <= xp_18_4 <= 2.25580592691558
 0 <= xp_19_0 <= 28.6113979610287
 0 <= xp_19_1 <= 2.18779156404975
 0 <= xp_19_2 <= 3.28168734607463
 0 <= xp_19_3 <= 8.45077514907633
 0 <= xp_19_4 <= 1.09389578202488
 0 <= xp_19_5 <= 1.09389578202488
 0 <= xp_20_0 <= 28.4980406895857
 0 <= xp_20_1 <= 6.22330287782014
 0 <= xp_20_2 <= 3.11165143891007
 0 <= xp_20_3 <= 6.03626904214049
 0 <= xp_21_0 <= 21.5492248509237
 0 <= xp_21_1 <= 1.82504829543203
 0 <= xp_21_2 <= 8.39977381392924
 0 <= xp_21_3 <= 5.59984920928616
 0 <= xp_21_4 <= 2.79992460464308
 0 <= xp_21_5 <= 1.82504829543203
 0 <= xp_22_0 <= 23.9580725312896
 0 <= xp_22_1 <= 2.68656733320004
 0 <= xp_22_2 <= 3.19666750509189
 0 <= xp_22_3 <= 2.39750062881892
 0 <= xp_22_4 <= 0.799166876272973
 0 <= xp_22_5 <= 3.77480091385414
 0 <= xp_22_6 <= 0.799166876272973
 0 <= xp_22_7 <= 2.68656733320004
 0 <= xp_23_0 <= 26.9337065688708
 0 <= xp_23_1 <= 6.68240171456491
 0 <= xp_23_2 <= 2.68656733320004
 0 <= xp_23_3 <= 1.59833375254595
 0 <= xp_23_4 <= 0.799166876272973
 0 <= xp_23_5 <= 0.799166876272973
 0 <= xp_23_6 <= 0.799166876272973

End
